\ENCODING=ISO-8859-1
\Problem name: IloCplex

Minimize
 obj: 3 I_0_1 + 3 I_1_1 + 3 I_2_1 + 3 I_0_2 + 3 I_1_2 + 3 I_2_2 + 3 I_0_3
      + 3 I_1_3 + 3 I_2_3 + 30 p_1 + 3000 y_1 + 30 p_2 + 3000 y_2 + 30 p_3
      + 3000 y_3 + X_0_1_1 + X_0_2_1 + X_1_0_1 + 2 X_1_2_1 + X_2_0_1
      + 2 X_2_1_1 + X_0_1_2 + X_0_2_2 + X_1_0_2 + 2 X_1_2_2 + X_2_0_2
      + 2 X_2_1_2 + X_0_1_3 + X_0_2_3 + X_1_0_3 + 2 X_1_2_3 + X_2_0_3
      + 2 X_2_1_3
Subject To
 C2_t1:        - I_0_1 + p_1 + I_0_0 - Q_1_1 - Q_2_1  = 0
 C2_t2:        I_0_1 - I_0_2 + p_2 - Q_1_2 - Q_2_2  = 0
 C2_t3:        I_0_2 - I_0_3 + p_3 - Q_1_3 - Q_2_3  = 0
 C3_i1;t1:     - I_1_1 + Q_1_1 + I_1_0  = 10
 C3_i1;t2:     I_1_1 - I_1_2 + Q_1_2  = 20
 C3_i1;t3:     I_1_2 - I_1_3 + Q_1_3  = 30
 C3_i2;t1:     - I_2_1 + Q_2_1 + I_2_0  = 40
 C3_i2;t2:     I_2_1 - I_2_2 + Q_2_2  = 50
 C3_i2;t3:     I_2_2 - I_2_3 + Q_2_3  = 60
 C4_t1:        p_1 - 210 y_1 <= 0
 C4_t2:        p_2 - 160 y_2 <= 0
 C4_t3:        p_3 - 90 y_3 <= 0
 C5_t0:        I_0_0 <= 10000000000
 C5_t1:        I_0_1 <= 10000000000
 C5_t2:        I_0_2 <= 10000000000
 C5_t3:        I_0_3 <= 10000000000
 C6_i1;t1:     Q_1_1 + I_1_0 <= 100
 C6_i1;t2:     I_1_1 + Q_1_2 <= 100
 C6_i1;t3:     I_1_2 + Q_1_3 <= 100
 C6_i2;t1:     Q_2_1 + I_2_0 <= 100
 C6_i2;t2:     I_2_1 + Q_2_2 <= 100
 C6_i2;t3:     I_2_2 + Q_2_3 <= 100
 C7_i1;t1:     Q_1_1 - 60 Z_1_1 <= 0
 C7_i1;t2:     Q_1_2 - 50 Z_1_2 <= 0
 C7_i1;t3:     Q_1_3 - 30 Z_1_3 <= 0
 C7_i2;t1:     Q_2_1 - 100 Z_2_1 <= 0
 C7_i2;t2:     Q_2_2 - 100 Z_2_2 <= 0
 C7_i2;t3:     Q_2_3 - 60 Z_2_3 <= 0
 C8_i1;t1:     X_0_1_1 + X_2_1_1 - Z_1_1  = 0
 C8_i1;t2:     X_0_1_2 + X_2_1_2 - Z_1_2  = 0
 C8_i1;t3:     X_0_1_3 + X_2_1_3 - Z_1_3  = 0
 C8_i2;t1:     X_0_2_1 + X_1_2_1 - Z_2_1  = 0
 C8_i2;t2:     X_0_2_2 + X_1_2_2 - Z_2_2  = 0
 C8_i2;t3:     X_0_2_3 + X_1_2_3 - Z_2_3  = 0
 C9_i0;t1:     X_0_1_1 + X_0_2_1 + X_1_0_1 + X_2_0_1 - 2 Z_0_1  = 0
 C9_i0;t2:     X_0_1_2 + X_0_2_2 + X_1_0_2 + X_2_0_2 - 2 Z_0_2  = 0
 C9_i0;t3:     X_0_1_3 + X_0_2_3 + X_1_0_3 + X_2_0_3 - 2 Z_0_3  = 0
 C9_i1;t1:     X_0_1_1 + X_1_0_1 + X_1_2_1 + X_2_1_1 - 2 Z_1_1  = 0
 C9_i1;t2:     X_0_1_2 + X_1_0_2 + X_1_2_2 + X_2_1_2 - 2 Z_1_2  = 0
 C9_i1;t3:     X_0_1_3 + X_1_0_3 + X_1_2_3 + X_2_1_3 - 2 Z_1_3  = 0
 C9_i2;t1:     X_0_2_1 + X_1_2_1 + X_2_0_1 + X_2_1_1 - 2 Z_2_1  = 0
 C9_i2;t2:     X_0_2_2 + X_1_2_2 + X_2_0_2 + X_2_1_2 - 2 Z_2_2  = 0
 C9_i2;t3:     X_0_2_3 + X_1_2_3 + X_2_0_3 + X_2_1_3 - 2 Z_2_3  = 0
 C11_(1;2);t1: - 60 X_1_2_1 - Q_1_1 + W_1_1 - W_2_1 >= -60
 C11_(1;2);t2: - 50 X_1_2_2 - Q_1_2 + W_1_2 - W_2_2 >= -50
 C11_(1;2);t3: - 30 X_1_2_3 - Q_1_3 + W_1_3 - W_2_3 >= -30
 C11_(2;1);t1: - 100 X_2_1_1 - Q_2_1 - W_1_1 + W_2_1 >= -100
 C11_(2;1);t2: - 100 X_2_1_2 - Q_2_2 - W_1_2 + W_2_2 >= -100
 C11_(2;1);t3: - 60 X_2_1_3 - Q_2_3 - W_1_3 + W_2_3 >= -60
 C12_i1;t0:    - 100 Z_1_1 + W_1_1 <= 0
 C12_i1;t1:    - 100 Z_1_2 + W_1_2 <= 0
 C12_i1;t2:    - 100 Z_1_3 + W_1_3 <= 0
 C12_i2;t0:    - 100 Z_2_1 + W_2_1 <= 0
 C12_i2;t1:    - 100 Z_2_2 + W_2_2 <= 0
 C12_i2;t2:    - 100 Z_2_3 + W_2_3 <= 0
Bounds
 0 <= I_0_1 <= 10000000000
 0 <= I_1_1 <= 100
 0 <= I_2_1 <= 100
 0 <= I_0_2 <= 10000000000
 0 <= I_1_2 <= 100
 0 <= I_2_2 <= 100
 0 <= I_0_3 <= 10000000000
 0 <= I_1_3 <= 100
 0 <= I_2_3 <= 100
 0 <= y_1 <= 1
 0 <= y_2 <= 1
 0 <= y_3 <= 1
 0 <= X_0_1_1 <= 1
 0 <= X_0_2_1 <= 1
 0 <= X_1_0_1 <= 1
 0 <= X_1_2_1 <= 1
 0 <= X_2_0_1 <= 1
 0 <= X_2_1_1 <= 1
 0 <= X_0_1_2 <= 1
 0 <= X_0_2_2 <= 1
 0 <= X_1_0_2 <= 1
 0 <= X_1_2_2 <= 1
 0 <= X_2_0_2 <= 1
 0 <= X_2_1_2 <= 1
 0 <= X_0_1_3 <= 1
 0 <= X_0_2_3 <= 1
 0 <= X_1_0_3 <= 1
 0 <= X_1_2_3 <= 1
 0 <= X_2_0_3 <= 1
 0 <= X_2_1_3 <= 1
      I_0_0 = 1
 0 <= Q_1_1 <= 100
 0 <= Q_2_1 <= 100
 0 <= Q_1_2 <= 100
 0 <= Q_2_2 <= 100
 0 <= Q_1_3 <= 100
 0 <= Q_2_3 <= 100
      I_1_0 = 2
      I_2_0 = 3
 0 <= Z_1_1 <= 1
 0 <= Z_1_2 <= 1
 0 <= Z_1_3 <= 1
 0 <= Z_2_1 <= 1
 0 <= Z_2_2 <= 1
 0 <= Z_2_3 <= 1
 0 <= Z_0_1 <= 1
 0 <= Z_0_2 <= 1
 0 <= Z_0_3 <= 1
 0 <= W_1_1 <= 100
 0 <= W_2_1 <= 100
 0 <= W_1_2 <= 100
 0 <= W_2_2 <= 100
 0 <= W_1_3 <= 100
 0 <= W_2_3 <= 100
Binaries
 y_1  y_2  y_3  X_0_1_1  X_0_2_1  X_1_0_1  X_1_2_1  X_2_0_1  X_2_1_1  X_0_1_2 
 X_0_2_2  X_1_0_2  X_1_2_2  X_2_0_2  X_2_1_2  X_0_1_3  X_0_2_3  X_1_0_3 
 X_1_2_3  X_2_0_3  X_2_1_3  Z_1_1  Z_1_2  Z_1_3  Z_2_1  Z_2_2  Z_2_3  Z_0_1 
 Z_0_2  Z_0_3 
End
